c turning on binary mode checking
c parsing input formula with 202048 variables and 780985 clauses
c finished parsing, read 2341380 bytes from proof file
c detected empty clause; start verification via backward checking
c 6752 of 780985 clauses in core                            
c 2221 of 90734 lemmas in core using 82716 resolution steps
c 0 RAT lemmas in core; 573 redundant literals in core lemmas
s VERIFIED
c verification time: 1.126 seconds
